<?xml version = "1.0" standalone="yes"?>
<!-- This file has been generated by DOcplex version 2.23.222  -->
<CPLEXSolution version="1.0">
 <header
   problemName="CVRP"
   objectiveValue="23279.9"
  />
 <variables>
  <variable name="x_0_2" index="1" value="1.00000"/>
  <variable name="x_0_5" index="4" value="1.00000"/>
  <variable name="x_0_6" index="5" value="1.00000"/>
  <variable name="x_0_8" index="7" value="1.00000"/>
  <variable name="x_0_9" index="8" value="1.00000"/>
  <variable name="x_0_10" index="9" value="1.00000"/>
  <variable name="x_0_11" index="10" value="1.00000"/>
  <variable name="x_0_14" index="13" value="1.00000"/>
  <variable name="x_0_17" index="16" value="1.00000"/>
  <variable name="x_0_18" index="17" value="1.00000"/>
  <variable name="x_0_19" index="18" value="1.00000"/>
  <variable name="x_0_21" index="20" value="1.00000"/>
  <variable name="x_0_22" index="21" value="1.00000"/>
  <variable name="x_0_23" index="22" value="1.00000"/>
  <variable name="x_0_26" index="25" value="1.00000"/>
  <variable name="x_1_0" index="26" value="1.00000"/>
  <variable name="x_2_0" index="52" value="1.00000"/>
  <variable name="x_3_0" index="78" value="1.00000"/>
  <variable name="x_4_20" index="123" value="1.00000"/>
  <variable name="x_5_0" index="130" value="1.00000"/>
  <variable name="x_6_0" index="156" value="1.00000"/>
  <variable name="x_7_0" index="182" value="1.00000"/>
  <variable name="x_8_1" index="209" value="1.00000"/>
  <variable name="x_9_0" index="234" value="1.00000"/>
  <variable name="x_10_24" index="283" value="1.00000"/>
  <variable name="x_11_3" index="289" value="1.00000"/>
  <variable name="x_12_0" index="312" value="1.00000"/>
  <variable name="x_13_0" index="338" value="1.00000"/>
  <variable name="x_14_16" index="379" value="1.00000"/>
  <variable name="x_15_4" index="394" value="1.00000"/>
  <variable name="x_16_7" index="423" value="1.00000"/>
  <variable name="x_17_13" index="455" value="1.00000"/>
  <variable name="x_18_0" index="468" value="1.00000"/>
  <variable name="x_19_0" index="494" value="1.00000"/>
  <variable name="x_20_0" index="520" value="1.00000"/>
  <variable name="x_21_0" index="546" value="1.00000"/>
  <variable name="x_22_0" index="572" value="1.00000"/>
  <variable name="x_23_25" index="622" value="1.00000"/>
  <variable name="x_24_0" index="624" value="1.00000"/>
  <variable name="x_25_12" index="662" value="1.00000"/>
  <variable name="x_26_15" index="691" value="1.00000"/>
  <variable name="u_1" index="702" value="22.00000"/>
  <variable name="u_2" index="703" value="18.00000"/>
  <variable name="u_3" index="704" value="23.00000"/>
  <variable name="u_4" index="705" value="22.00000"/>
  <variable name="u_5" index="706" value="23.00000"/>
  <variable name="u_6" index="707" value="17.00000"/>
  <variable name="u_7" index="708" value="23.00000"/>
  <variable name="u_8" index="709" value="13.00000"/>
  <variable name="u_9" index="710" value="22.00000"/>
  <variable name="u_10" index="711" value="17.00000"/>
  <variable name="u_11" index="712" value="5.00000"/>
  <variable name="u_12" index="713" value="23.00000"/>
  <variable name="u_13" index="714" value="23.00000"/>
  <variable name="u_14" index="715" value="8.00000"/>
  <variable name="u_15" index="716" value="14.00000"/>
  <variable name="u_16" index="717" value="20.00000"/>
  <variable name="u_17" index="718" value="15.00000"/>
  <variable name="u_18" index="719" value="16.00000"/>
  <variable name="u_19" index="720" value="21.00000"/>
  <variable name="u_20" index="721" value="23.00000"/>
  <variable name="u_21" index="722" value="23.00000"/>
  <variable name="u_22" index="723" value="21.00000"/>
  <variable name="u_23" index="724" value="13.00000"/>
  <variable name="u_24" index="725" value="22.00000"/>
  <variable name="u_25" index="726" value="19.00000"/>
  <variable name="u_26" index="727" value="8.00000"/>
 </variables>
</CPLEXSolution>
